p tw 170 188
1 2
2 83
3 14
4 5
4 8
5 6
6 7
6 8
7 8
8 9
9 78
10 11
11 12
12 13
13 15
14 25
15 16
16 17
17 18
18 19
19 20
20 21
21 22
22 23
22 52
23 24
24 26
25 36
26 27
27 28
28 29
29 30
29 49
30 31
30 40
31 32
32 33
33 34
34 35
34 37
35 37
36 47
37 38
38 39
39 49
40 41
41 42
42 43
43 44
44 45
45 46
46 48
47 58
48 49
49 50
50 51
51 18
52 53
53 54
53 55
54 78
55 56
56 57
57 59
58 69
59 60
60 61
61 62
61 63
62 63
63 64
64 65
65 66
65 76
66 67
67 68
68 70
69 80
70 71
71 72
72 73
73 74
73 76
74 75
75 78
76 77
77 78
78 79
80 81
81 82
82 84
83 94
84 85
85 86
86 87
87 88
88 89
89 90
89 91
90 78
91 92
92 93
93 95
94 105
95 96
96 97
97 98
98 99
99 100
100 101
101 102
101 130
102 103
103 104
104 106
105 116
106 107
107 108
107 126
108 109
108 118
109 110
110 111
111 112
112 113
112 114
113 114
114 115
115 117
116 127
117 126
118 119
119 120
120 121
121 122
122 123
123 124
124 125
125 126
126 128
127 138
128 129
129 98
130 131
131 132
132 133
133 134
133 10
134 135
134 136
135 78
136 137
137 139
138 149
139 140
140 141
141 142
142 143
143 144
143 154
144 145
145 146
146 147
147 148
148 150
149 160
150 151
151 152
152 153
153 154
154 155
155 156
156 157
157 158
158 159
159 161
159 166
160 3
161 162
162 163
163 164
164 165
165 156
166 167
167 168
168 169
169 170
170 4
